benchmarks_CP/INST_36x36/45/inst36x36_45_6.dzn
S=6;
start=[|
23,	-1,	11,	26,	28,	-1,	21,	-1,	34,	-1,	9,	-1,	-1,	25,	20,	29,	-1,	-1,	-1,	36,	5,	30,	15,	3,	-1,	-1,	13,	-1,	12,	31,	6,	-1,	-1,	7,	10,	2|
-1,	-1,	5,	-1,	-1,	-1,	30,	-1,	29,	36,	7,	-1,	14,	-1,	35,	3,	-1,	-1,	-1,	19,	17,	6,	-1,	12,	-1,	-1,	28,	-1,	-1,	-1,	-1,	-1,	31,	-1,	-1,	21|
19,	-1,	-1,	3,	15,	6,	23,	-1,	27,	17,	11,	25,	-1,	5,	-1,	-1,	-1,	26,	-1,	-1,	-1,	24,	-1,	-1,	2,	-1,	22,	-1,	-1,	-1,	-1,	-1,	-1,	-1,	-1,	-1|
-1,	-1,	24,	30,	-1,	7,	-1,	-1,	15,	-1,	-1,	-1,	10,	36,	-1,	-1,	-1,	-1,	13,	26,	14,	-1,	-1,	-1,	-1,	-1,	-1,	34,	-1,	-1,	27,	-1,	-1,	-1,	-1,	-1|
14,	-1,	-1,	10,	-1,	16,	3,	-1,	-1,	-1,	-1,	-1,	-1,	17,	28,	7,	21,	-1,	31,	20,	33,	11,	-1,	-1,	-1,	8,	-1,	-1,	-1,	-1,	1,	-1,	-1,	19,	-1,	-1|
-1,	-1,	-1,	-1,	-1,	36,	26,	10,	2,	20,	-1,	-1,	23,	-1,	24,	6,	19,	1,	-1,	-1,	-1,	-1,	-1,	-1,	-1,	30,	-1,	-1,	-1,	3,	17,	-1,	9,	-1,	5,	-1|
-1,	-1,	-1,	13,	-1,	-1,	-1,	-1,	16,	-1,	-1,	1,	3,	-1,	-1,	-1,	12,	-1,	-1,	-1,	-1,	-1,	-1,	11,	-1,	-1,	8,	-1,	22,	-1,	34,	-1,	30,	-1,	-1,	5|
-1,	-1,	15,	16,	-1,	9,	24,	30,	-1,	-1,	-1,	34,	29,	10,	-1,	18,	32,	-1,	2,	-1,	-1,	-1,	6,	20,	-1,	11,	-1,	-1,	-1,	-1,	19,	12,	-1,	-1,	-1,	25|
12,	32,	14,	-1,	-1,	-1,	-1,	-1,	-1,	-1,	-1,	29,	34,	11,	-1,	-1,	13,	-1,	-1,	5,	-1,	21,	-1,	18,	-1,	1,	33,	-1,	4,	19,	22,	-1,	-1,	-1,	-1,	-1|
-1,	11,	-1,	34,	-1,	-1,	-1,	-1,	-1,	-1,	15,	-1,	-1,	7,	6,	25,	26,	-1,	-1,	12,	-1,	14,	-1,	13,	10,	-1,	9,	-1,	-1,	20,	-1,	-1,	16,	32,	2,	28|
-1,	26,	-1,	21,	30,	-1,	-1,	-1,	-1,	-1,	-1,	31,	-1,	-1,	5,	23,	-1,	14,	17,	-1,	-1,	-1,	-1,	32,	-1,	24,	-1,	-1,	-1,	-1,	-1,	-1,	8,	10,	35,	18|
36,	5,	-1,	4,	-1,	-1,	14,	9,	35,	26,	-1,	-1,	-1,	8,	33,	20,	-1,	28,	25,	-1,	27,	-1,	-1,	-1,	6,	-1,	-1,	16,	7,	32,	-1,	23,	-1,	-1,	-1,	-1|
30,	-1,	-1,	7,	-1,	-1,	-1,	-1,	-1,	6,	-1,	-1,	-1,	-1,	-1,	26,	34,	-1,	4,	-1,	-1,	-1,	10,	1,	-1,	25,	14,	8,	13,	-1,	5,	15,	29,	-1,	18,	17|
-1,	-1,	-1,	8,	-1,	18,	-1,	25,	-1,	-1,	3,	-1,	-1,	23,	-1,	-1,	-1,	30,	12,	-1,	-1,	19,	20,	14,	-1,	-1,	-1,	27,	5,	24,	13,	6,	-1,	-1,	22,	32|
11,	-1,	19,	-1,	-1,	1,	18,	-1,	14,	-1,	5,	8,	-1,	-1,	-1,	-1,	-1,	2,	-1,	-1,	25,	-1,	33,	6,	-1,	9,	-1,	-1,	-1,	29,	-1,	34,	20,	-1,	12,	31|
-1,	34,	31,	27,	29,	12,	-1,	17,	32,	-1,	1,	30,	28,	-1,	-1,	36,	9,	20,	11,	-1,	-1,	5,	-1,	22,	-1,	-1,	-1,	23,	15,	-1,	7,	14,	24,	-1,	-1,	26|
21,	-1,	-1,	2,	-1,	-1,	-1,	13,	-1,	-1,	-1,	-1,	6,	-1,	-1,	8,	17,	-1,	-1,	18,	29,	-1,	26,	30,	-1,	-1,	-1,	-1,	-1,	28,	-1,	-1,	10,	-1,	19,	16|
22,	36,	13,	-1,	-1,	5,	-1,	34,	-1,	-1,	20,	26,	-1,	-1,	-1,	24,	-1,	3,	15,	-1,	-1,	32,	-1,	-1,	18,	-1,	10,	-1,	-1,	16,	-1,	-1,	25,	-1,	1,	-1|
20,	30,	-1,	18,	-1,	26,	-1,	29,	28,	-1,	-1,	11,	-1,	16,	4,	12,	-1,	-1,	21,	-1,	3,	35,	13,	31,	-1,	-1,	-1,	22,	-1,	15,	14,	-1,	34,	-1,	-1,	7|
-1,	-1,	35,	-1,	-1,	-1,	-1,	-1,	-1,	-1,	21,	3,	-1,	-1,	-1,	14,	-1,	-1,	36,	-1,	-1,	-1,	5,	27,	-1,	6,	-1,	11,	-1,	-1,	31,	10,	-1,	-1,	29,	4|
15,	27,	-1,	-1,	32,	-1,	9,	23,	26,	19,	-1,	-1,	24,	-1,	-1,	-1,	-1,	10,	-1,	8,	-1,	-1,	7,	-1,	33,	36,	18,	3,	25,	4,	12,	-1,	-1,	20,	-1,	6|
-1,	12,	17,	-1,	6,	29,	36,	35,	-1,	18,	-1,	-1,	-1,	2,	26,	-1,	3,	-1,	14,	-1,	20,	-1,	-1,	4,	31,	-1,	-1,	21,	-1,	27,	15,	-1,	13,	30,	-1,	1|
-1,	-1,	1,	-1,	-1,	-1,	-1,	12,	-1,	-1,	31,	20,	-1,	29,	11,	22,	27,	-1,	-1,	6,	-1,	34,	24,	-1,	5,	-1,	-1,	-1,	8,	-1,	-1,	19,	-1,	3,	9,	-1|
-1,	-1,	-1,	-1,	-1,	4,	10,	-1,	-1,	34,	-1,	-1,	25,	-1,	-1,	-1,	31,	-1,	-1,	-1,	12,	-1,	11,	17,	16,	-1,	-1,	14,	-1,	-1,	28,	36,	23,	24,	26,	35|
24,	-1,	2,	-1,	-1,	-1,	-1,	-1,	-1,	3,	-1,	17,	-1,	-1,	23,	-1,	-1,	-1,	9,	1,	11,	-1,	34,	-1,	-1,	13,	35,	-1,	-1,	-1,	-1,	-1,	-1,	31,	15,	-1|
26,	15,	8,	-1,	-1,	35,	20,	2,	21,	14,	-1,	18,	-1,	-1,	10,	-1,	22,	-1,	3,	-1,	-1,	-1,	36,	25,	-1,	-1,	-1,	-1,	11,	33,	23,	-1,	1,	-1,	24,	-1|
13,	3,	36,	17,	-1,	11,	-1,	7,	-1,	8,	-1,	-1,	-1,	-1,	1,	-1,	-1,	29,	-1,	-1,	-1,	-1,	-1,	19,	12,	-1,	31,	10,	18,	23,	21,	35,	-1,	-1,	32,	22|
-1,	-1,	32,	14,	-1,	21,	-1,	-1,	33,	12,	30,	36,	-1,	-1,	34,	2,	-1,	19,	-1,	-1,	-1,	10,	31,	15,	-1,	16,	-1,	-1,	-1,	25,	-1,	-1,	-1,	18,	28,	-1|
25,	-1,	-1,	-1,	-1,	-1,	-1,	-1,	24,	-1,	-1,	-1,	5,	-1,	36,	-1,	-1,	16,	33,	13,	-1,	18,	35,	29,	-1,	-1,	-1,	20,	-1,	1,	-1,	-1,	-1,	17,	-1,	-1|
31,	10,	-1,	33,	16,	-1,	13,	1,	-1,	9,	34,	-1,	-1,	26,	-1,	-1,	35,	-1,	-1,	-1,	-1,	17,	14,	21,	3,	-1,	2,	-1,	32,	-1,	29,	-1,	12,	4,	25,	-1|
-1,	16,	18,	-1,	10,	-1,	-1,	-1,	6,	-1,	-1,	-1,	-1,	-1,	-1,	13,	33,	36,	-1,	-1,	2,	25,	12,	24,	-1,	-1,	-1,	31,	-1,	22,	-1,	-1,	7,	9,	8,	-1|
-1,	-1,	-1,	-1,	33,	-1,	-1,	3,	36,	4,	8,	-1,	-1,	-1,	29,	30,	-1,	32,	6,	35,	15,	16,	-1,	-1,	-1,	-1,	21,	-1,	10,	-1,	18,	-1,	5,	-1,	-1,	19|
-1,	31,	23,	-1,	-1,	-1,	-1,	14,	20,	-1,	-1,	-1,	-1,	35,	15,	-1,	6,	12,	-1,	4,	-1,	13,	-1,	-1,	-1,	26,	-1,	28,	-1,	2,	-1,	-1,	-1,	-1,	34,	-1|
-1,	-1,	-1,	15,	12,	8,	34,	-1,	31,	-1,	-1,	-1,	7,	-1,	3,	17,	10,	-1,	-1,	32,	-1,	-1,	-1,	-1,	-1,	-1,	24,	25,	-1,	-1,	30,	28,	2,	36,	-1,	-1|
-1,	-1,	-1,	-1,	19,	-1,	5,	15,	30,	-1,	-1,	35,	26,	20,	-1,	-1,	2,	-1,	-1,	9,	31,	7,	23,	33,	-1,	-1,	-1,	-1,	6,	-1,	-1,	-1,	-1,	-1,	17,	-1|
9,	2,	6,	-1,	-1,	-1,	-1,	32,	11,	-1,	24,	-1,	-1,	-1,	-1,	-1,	-1,	-1,	34,	-1,	-1,	-1,	-1,	28,	7,	18,	-1,	-1,	-1,	-1,	-1,	4,	26,	-1,	-1,	-1|];
